NAME sublimation_srl_ilp
* Max problem is converted into Min one
ROWS
 N  OBJ
 L  constraint1_3200
 L  constraint1_3201
 L  constraint1_570
 L  constraint1_6870
 L  constraint1_3870
 L  constraint1_791
 L  constraint1_790
 L  constraint1_792
 L  constraint1_799
 L  constraint1_01
 L  constraint1_00
 L  constraint1_06
 L  constraint1_220
 L  constraint1_2590
 L  constraint1_5090
 L  constraint1_7222
 L  constraint1_7224
 L  constraint1_7220
 L  constraint1_7223
 L  constraint1_7221
 L  constraint1_7225
 L  constraint1_6970
 L  constraint1_2830
 L  constraint2_3200
 L  constraint2_3201
 L  constraint2_3202
 L  constraint2_3203
 L  constraint2_570
 L  constraint2_571
 L  constraint2_572
 L  constraint2_573
 L  constraint2_5820
 L  constraint2_5821
 L  constraint2_5822
 L  constraint2_5823
 L  constraint2_6870
 L  constraint2_6871
 L  constraint2_6872
 L  constraint2_6873
 L  constraint2_3870
 L  constraint2_3871
 L  constraint2_3872
 L  constraint2_3873
 L  constraint2_510
 L  constraint2_511
 L  constraint2_512
 L  constraint2_513
 L  constraint2_790
 L  constraint2_791
 L  constraint2_792
 L  constraint2_793
 L  constraint2_00
 L  constraint2_01
 L  constraint2_02
 L  constraint2_03
 L  constraint2_220
 L  constraint2_221
 L  constraint2_222
 L  constraint2_223
 L  constraint2_4170
 L  constraint2_4171
 L  constraint2_4172
 L  constraint2_4173
 L  constraint2_2590
 L  constraint2_2591
 L  constraint2_2592
 L  constraint2_2593
 L  constraint2_5090
 L  constraint2_5091
 L  constraint2_5092
 L  constraint2_5093
 L  constraint2_4960
 L  constraint2_4961
 L  constraint2_4962
 L  constraint2_4963
 L  constraint2_7220
 L  constraint2_7221
 L  constraint2_7222
 L  constraint2_7223
 L  constraint2_6970
 L  constraint2_6971
 L  constraint2_6972
 L  constraint2_6973
 L  constraint2_2830
 L  constraint2_2831
 L  constraint2_2832
 L  constraint2_2833
COLUMNS
    MARKER    'MARKER'                 'INTORG'
    Z_320_0_0  OBJ       -4.9224360881274959e-01
    Z_320_0_0  constraint1_3200  1
    Z_320_0_0  constraint2_3200  1
    Z_320_0_1  OBJ       -4.8313946773117329e-03
    Z_320_0_1  constraint1_3200  1
    Z_320_0_1  constraint2_3201  1
    Z_320_0_2  OBJ       -1.1721267627622349e-02
    Z_320_0_2  constraint1_3200  1
    Z_320_0_2  constraint2_3202  1
    Z_320_0_3  OBJ       -2.0237060811254748e-01
    Z_320_0_3  constraint1_3200  1
    Z_320_0_3  constraint2_3203  1
    Z_320_0_4  OBJ       -1.8883312076976888e-01
    Z_320_0_4  constraint1_3200  1
    Z_320_1_0  OBJ       -4.4157224350901267e-03
    Z_320_1_0  constraint1_3201  1
    Z_320_1_0  constraint2_3200  1
    Z_320_1_1  OBJ       -4.8787826019265649e-03
    Z_320_1_1  constraint1_3201  1
    Z_320_1_1  constraint2_3201  1
    Z_320_1_2  OBJ       -8.3622827563983582e-01
    Z_320_1_2  constraint1_3201  1
    Z_320_1_2  constraint2_3202  1
    Z_320_1_3  OBJ       -5.6789091030721430e-03
    Z_320_1_3  constraint1_3201  1
    Z_320_1_3  constraint2_3203  1
    Z_320_1_4  OBJ       -4.8798310220075400e-02
    Z_320_1_4  constraint1_3201  1
    Z_57_0_0  OBJ       -4.2505527338660759e-03
    Z_57_0_0  constraint1_570  1
    Z_57_0_0  constraint2_570  1
    Z_57_0_1  OBJ       -8.4792690222847023e-01
    Z_57_0_1  constraint1_570  1
    Z_57_0_1  constraint2_571  1
    Z_57_0_2  OBJ       -4.5477845611596639e-03
    Z_57_0_2  constraint1_570  1
    Z_57_0_2  constraint2_572  1
    Z_57_0_3  OBJ       -9.0078838937037997e-03
    Z_57_0_3  constraint1_570  1
    Z_57_0_3  constraint2_573  1
    Z_57_0_4  OBJ       -3.4266876582800400e-02
    Z_57_0_4  constraint1_570  1
    Z_687_0_0  OBJ       -5.6706797834251196e-03
    Z_687_0_0  constraint1_6870  1
    Z_687_0_0  constraint2_6870  1
    Z_687_0_1  OBJ       -2.2803674935469077e-02
    Z_687_0_1  constraint1_6870  1
    Z_687_0_1  constraint2_6871  1
    Z_687_0_2  OBJ       -2.4829042127698684e-02
    Z_687_0_2  constraint1_6870  1
    Z_687_0_2  constraint2_6872  1
    Z_687_0_3  OBJ       -2.3388561556029774e-01
    Z_687_0_3  constraint1_6870  1
    Z_687_0_3  constraint2_6873  1
    Z_687_0_4  OBJ       -6.1281098759310959e-01
    Z_687_0_4  constraint1_6870  1
    Z_387_0_0  OBJ       -1.1770582398174646e-03
    Z_387_0_0  constraint1_3870  1
    Z_387_0_0  constraint2_3870  1
    Z_387_0_1  OBJ       -7.7873973543441932e-01
    Z_387_0_1  constraint1_3870  1
    Z_387_0_1  constraint2_3871  1
    Z_387_0_2  OBJ       -4.3864658146408279e-03
    Z_387_0_2  constraint1_3870  1
    Z_387_0_2  constraint2_3872  1
    Z_387_0_3  OBJ       -1.8451443254557328e-03
    Z_387_0_3  constraint1_3870  1
    Z_387_0_3  constraint2_3873  1
    Z_387_0_4  OBJ       -1.1385159618566665e-01
    Z_387_0_4  constraint1_3870  1
    Z_79_1_0  OBJ       -1.3372252952244101e-02
    Z_79_1_0  constraint1_791  1
    Z_79_1_0  constraint2_790  1
    Z_79_1_1  OBJ       -1.0872263233333053e-02
    Z_79_1_1  constraint1_791  1
    Z_79_1_1  constraint2_791  1
    Z_79_1_2  OBJ       -4.0464920233015367e-01
    Z_79_1_2  constraint1_791  1
    Z_79_1_2  constraint2_792  1
    Z_79_1_3  OBJ       -4.4731490818447243e-04
    Z_79_1_3  constraint1_791  1
    Z_79_1_3  constraint2_793  1
    Z_79_1_4  OBJ       -4.7065896657608464e-01
    Z_79_1_4  constraint1_791  1
    Z_79_0_0  OBJ       -2.7022616809113673e-03
    Z_79_0_0  constraint1_790  1
    Z_79_0_0  constraint2_790  1
    Z_79_0_1  OBJ       -9.4417898501976440e-03
    Z_79_0_1  constraint1_790  1
    Z_79_0_1  constraint2_791  1
    Z_79_0_2  OBJ       -3.1550146579681437e-01
    Z_79_0_2  constraint1_790  1
    Z_79_0_2  constraint2_792  1
    Z_79_0_3  OBJ       -1.7354847641993458e-03
    Z_79_0_3  constraint1_790  1
    Z_79_0_3  constraint2_793  1
    Z_79_0_4  OBJ       -5.7061899790787729e-01
    Z_79_0_4  constraint1_790  1
    Z_79_2_0  OBJ       -9.0706898731870586e-02
    Z_79_2_0  constraint1_792  1
    Z_79_2_0  constraint2_790  1
    Z_79_2_1  OBJ       -1.4031731503961500e-01
    Z_79_2_1  constraint1_792  1
    Z_79_2_1  constraint2_791  1
    Z_79_2_2  OBJ       -9.3001707677362565e-03
    Z_79_2_2  constraint1_792  1
    Z_79_2_2  constraint2_792  1
    Z_79_2_3  OBJ       -9.4666336234694892e-02
    Z_79_2_3  constraint1_792  1
    Z_79_2_3  constraint2_793  1
    Z_79_2_4  OBJ       -5.6500927922608346e-01
    Z_79_2_4  constraint1_792  1
    Z_79_9_0  OBJ       -2.6226756437895136e-05
    Z_79_9_0  constraint1_799  1
    Z_79_9_0  constraint2_790  1
    Z_79_9_1  OBJ       -2.7159350540304425e-03
    Z_79_9_1  constraint1_799  1
    Z_79_9_1  constraint2_791  1
    Z_79_9_2  OBJ       -8.6466879501522831e-01
    Z_79_9_2  constraint1_799  1
    Z_79_9_2  constraint2_792  1
    Z_79_9_3  OBJ       -4.0827683285147047e-03
    Z_79_9_3  constraint1_799  1
    Z_79_9_3  constraint2_793  1
    Z_79_9_4  OBJ       -2.8506274845788708e-02
    Z_79_9_4  constraint1_799  1
    Z_0_1_0   OBJ       -1.2557230068492197e-02
    Z_0_1_0   constraint1_01  1
    Z_0_1_0   constraint2_00  1
    Z_0_1_1   OBJ       -2.7243301100706288e-02
    Z_0_1_1   constraint1_01  1
    Z_0_1_1   constraint2_01  1
    Z_0_1_2   OBJ       -8.4195605870191342e-03
    Z_0_1_2   constraint1_01  1
    Z_0_1_2   constraint2_02  1
    Z_0_1_3   OBJ       -5.7937522722631947e-03
    Z_0_1_3   constraint1_01  1
    Z_0_1_3   constraint2_03  1
    Z_0_1_4   OBJ       -8.4598615597151916e-01
    Z_0_1_4   constraint1_01  1
    Z_0_0_0   OBJ       -6.5805425836967552e-02
    Z_0_0_0   constraint1_00  1
    Z_0_0_0   constraint2_00  1
    Z_0_0_1   OBJ       -6.4468865937508835e-02
    Z_0_0_1   constraint1_00  1
    Z_0_0_1   constraint2_01  1
    Z_0_0_2   OBJ       -2.8317249080544249e-01
    Z_0_0_2   constraint1_00  1
    Z_0_0_2   constraint2_02  1
    Z_0_0_3   OBJ       -1.4571378743874491e-02
    Z_0_0_3   constraint1_00  1
    Z_0_0_3   constraint2_03  1
    Z_0_0_4   OBJ       -4.7198183867620669e-01
    Z_0_0_4   constraint1_00  1
    Z_0_6_0   OBJ       -2.3710740528264272e-04
    Z_0_6_0   constraint1_06  1
    Z_0_6_0   constraint2_00  1
    Z_0_6_1   OBJ       -4.6364705325308148e-03
    Z_0_6_1   constraint1_06  1
    Z_0_6_1   constraint2_01  1
    Z_0_6_2   OBJ       -8.6129843504194659e-01
    Z_0_6_2   constraint1_06  1
    Z_0_6_2   constraint2_02  1
    Z_0_6_3   OBJ       -3.4337464874342090e-03
    Z_0_6_3   constraint1_06  1
    Z_0_6_3   constraint2_03  1
    Z_0_6_4   OBJ       -3.0394240532805768e-02
    Z_0_6_4   constraint1_06  1
    Z_22_0_0  OBJ       -2.0563780549485711e-03
    Z_22_0_0  constraint1_220  1
    Z_22_0_0  constraint2_220  1
    Z_22_0_1  OBJ       -4.6989768256120619e-02
    Z_22_0_1  constraint1_220  1
    Z_22_0_1  constraint2_221  1
    Z_22_0_2  OBJ       -2.2694877382629830e-03
    Z_22_0_2  constraint1_220  1
    Z_22_0_2  constraint2_222  1
    Z_22_0_3  OBJ       -5.5119366678233916e-01
    Z_22_0_3  constraint1_220  1
    Z_22_0_3  constraint2_223  1
    Z_22_0_4  OBJ       -2.9749069916832876e-01
    Z_22_0_4  constraint1_220  1
    Z_259_0_0  OBJ       -6.8756230451707201e-01
    Z_259_0_0  constraint1_2590  1
    Z_259_0_0  constraint2_2590  1
    Z_259_0_1  OBJ       -1.4836586359002315e-02
    Z_259_0_1  constraint1_2590  1
    Z_259_0_1  constraint2_2591  1
    Z_259_0_2  OBJ       -2.1209415746702228e-03
    Z_259_0_2  constraint1_2590  1
    Z_259_0_2  constraint2_2592  1
    Z_259_0_3  OBJ       -9.1126070777667781e-02
    Z_259_0_3  constraint1_2590  1
    Z_259_0_3  constraint2_2593  1
    Z_259_0_4  OBJ       -1.0435409677158776e-01
    Z_259_0_4  constraint1_2590  1
    Z_509_0_0  OBJ       -5.8984415403978453e-03
    Z_509_0_0  constraint1_5090  1
    Z_509_0_0  constraint2_5090  1
    Z_509_0_1  OBJ       -3.5591823451217683e-02
    Z_509_0_1  constraint1_5090  1
    Z_509_0_1  constraint2_5091  1
    Z_509_0_2  OBJ       -7.3318409868290002e-01
    Z_509_0_2  constraint1_5090  1
    Z_509_0_2  constraint2_5092  1
    Z_509_0_3  OBJ       -1.6554777868906693e-02
    Z_509_0_3  constraint1_5090  1
    Z_509_0_3  constraint2_5093  1
    Z_509_0_4  OBJ       -1.0877085845657765e-01
    Z_509_0_4  constraint1_5090  1
    Z_722_2_0  OBJ       -1.3260567106309891e-03
    Z_722_2_0  constraint1_7222  1
    Z_722_2_0  constraint2_7220  1
    Z_722_2_1  OBJ       -4.0630830895276460e-03
    Z_722_2_1  constraint1_7222  1
    Z_722_2_1  constraint2_7221  1
    Z_722_2_2  OBJ       -6.3526861300735138e-01
    Z_722_2_2  constraint1_7222  1
    Z_722_2_2  constraint2_7222  1
    Z_722_2_3  OBJ       -3.9955273756754027e-03
    Z_722_2_3  constraint1_7222  1
    Z_722_2_3  constraint2_7223  1
    Z_722_2_4  OBJ       -2.5534671981681456e-01
    Z_722_2_4  constraint1_7222  1
    Z_722_4_0  OBJ       -2.6508014478585883e-02
    Z_722_4_0  constraint1_7224  1
    Z_722_4_0  constraint2_7220  1
    Z_722_4_1  OBJ       -1.3012033356897573e-01
    Z_722_4_1  constraint1_7224  1
    Z_722_4_1  constraint2_7221  1
    Z_722_4_2  OBJ       -2.1078370980824324e-02
    Z_722_4_2  constraint1_7224  1
    Z_722_4_2  constraint2_7222  1
    Z_722_4_3  OBJ       -5.2937125176277910e-01
    Z_722_4_3  constraint1_7224  1
    Z_722_4_3  constraint2_7223  1
    Z_722_4_4  OBJ       -1.9292202920883483e-01
    Z_722_4_4  constraint1_7224  1
    Z_722_0_0  OBJ       -1.9925773293624667e-02
    Z_722_0_0  constraint1_7220  1
    Z_722_0_0  constraint2_7220  1
    Z_722_0_1  OBJ       -2.0585658589014749e-01
    Z_722_0_1  constraint1_7220  1
    Z_722_0_1  constraint2_7221  1
    Z_722_0_2  OBJ       -2.0416640595734309e-02
    Z_722_0_2  constraint1_7220  1
    Z_722_0_2  constraint2_7222  1
    Z_722_0_3  OBJ       -7.1697509943369278e-02
    Z_722_0_3  constraint1_7220  1
    Z_722_0_3  constraint2_7223  1
    Z_722_0_4  OBJ       -5.8210349027712449e-01
    Z_722_0_4  constraint1_7220  1
    Z_722_3_0  OBJ       -1.9925773293624667e-02
    Z_722_3_0  constraint1_7223  1
    Z_722_3_0  constraint2_7220  1
    Z_722_3_1  OBJ       -2.0585658589014749e-01
    Z_722_3_1  constraint1_7223  1
    Z_722_3_1  constraint2_7221  1
    Z_722_3_2  OBJ       -2.0416640595734309e-02
    Z_722_3_2  constraint1_7223  1
    Z_722_3_2  constraint2_7222  1
    Z_722_3_3  OBJ       -7.1697509943369278e-02
    Z_722_3_3  constraint1_7223  1
    Z_722_3_3  constraint2_7223  1
    Z_722_3_4  OBJ       -5.8210349027712449e-01
    Z_722_3_4  constraint1_7223  1
    Z_722_1_0  OBJ       -1.3260567106309891e-03
    Z_722_1_0  constraint1_7221  1
    Z_722_1_0  constraint2_7220  1
    Z_722_1_1  OBJ       -4.0630830895276460e-03
    Z_722_1_1  constraint1_7221  1
    Z_722_1_1  constraint2_7221  1
    Z_722_1_2  OBJ       -6.3526861300735138e-01
    Z_722_1_2  constraint1_7221  1
    Z_722_1_2  constraint2_7222  1
    Z_722_1_3  OBJ       -3.9955273756754027e-03
    Z_722_1_3  constraint1_7221  1
    Z_722_1_3  constraint2_7223  1
    Z_722_1_4  OBJ       -2.5534671981681456e-01
    Z_722_1_4  constraint1_7221  1
    Z_722_5_0  OBJ       -7.5523943394530391e-02
    Z_722_5_0  constraint1_7225  1
    Z_722_5_0  constraint2_7220  1
    Z_722_5_1  OBJ       -2.0631013604704502e-02
    Z_722_5_1  constraint1_7225  1
    Z_722_5_1  constraint2_7221  1
    Z_722_5_2  OBJ       -2.7690787762009169e-02
    Z_722_5_2  constraint1_7225  1
    Z_722_5_2  constraint2_7222  1
    Z_722_5_3  OBJ       -3.3109786932652895e-02
    Z_722_5_3  constraint1_7225  1
    Z_722_5_3  constraint2_7223  1
    Z_722_5_4  OBJ       -7.4304446830610293e-01
    Z_722_5_4  constraint1_7225  1
    Z_697_0_0  OBJ       -2.6016411890593154e-02
    Z_697_0_0  constraint1_6970  1
    Z_697_0_0  constraint2_6970  1
    Z_697_0_1  OBJ       -1.9411748450789308e-02
    Z_697_0_1  constraint1_6970  1
    Z_697_0_1  constraint2_6971  1
    Z_697_0_2  OBJ       -5.2343495853778080e-03
    Z_697_0_2  constraint1_6970  1
    Z_697_0_2  constraint2_6972  1
    Z_697_0_3  OBJ       -8.0528855819894862e-01
    Z_697_0_3  constraint1_6970  1
    Z_697_0_3  constraint2_6973  1
    Z_697_0_4  OBJ       -4.4048931874291021e-02
    Z_697_0_4  constraint1_6970  1
    Z_283_0_0  OBJ       -2.4102610582258745e-02
    Z_283_0_0  constraint1_2830  1
    Z_283_0_0  constraint2_2830  1
    Z_283_0_1  OBJ       -1.8485515905787404e-02
    Z_283_0_1  constraint1_2830  1
    Z_283_0_1  constraint2_2831  1
    Z_283_0_2  OBJ       -5.9889087817448340e-03
    Z_283_0_2  constraint1_2830  1
    Z_283_0_2  constraint2_2832  1
    Z_283_0_3  OBJ       -7.9971191450244894e-01
    Z_283_0_3  constraint1_2830  1
    Z_283_0_3  constraint2_2833  1
    Z_283_0_4  OBJ       -5.1711050227760152e-02
    Z_283_0_4  constraint1_2830  1
    MARKER    'MARKER'                 'INTEND'
RHS
    RHS1      constraint1_3200  1
    RHS1      constraint1_3201  1
    RHS1      constraint1_570  1
    RHS1      constraint1_6870  1
    RHS1      constraint1_3870  1
    RHS1      constraint1_791  1
    RHS1      constraint1_790  1
    RHS1      constraint1_792  1
    RHS1      constraint1_799  1
    RHS1      constraint1_01  1
    RHS1      constraint1_00  1
    RHS1      constraint1_06  1
    RHS1      constraint1_220  1
    RHS1      constraint1_2590  1
    RHS1      constraint1_5090  1
    RHS1      constraint1_7222  1
    RHS1      constraint1_7224  1
    RHS1      constraint1_7220  1
    RHS1      constraint1_7223  1
    RHS1      constraint1_7221  1
    RHS1      constraint1_7225  1
    RHS1      constraint1_6970  1
    RHS1      constraint1_2830  1
    RHS1      constraint2_3200  1
    RHS1      constraint2_3201  1
    RHS1      constraint2_3202  1
    RHS1      constraint2_3203  1
    RHS1      constraint2_570  1
    RHS1      constraint2_571  1
    RHS1      constraint2_572  1
    RHS1      constraint2_573  1
    RHS1      constraint2_5820  1
    RHS1      constraint2_5821  1
    RHS1      constraint2_5822  1
    RHS1      constraint2_5823  1
    RHS1      constraint2_6870  1
    RHS1      constraint2_6871  1
    RHS1      constraint2_6872  1
    RHS1      constraint2_6873  1
    RHS1      constraint2_3870  1
    RHS1      constraint2_3871  1
    RHS1      constraint2_3872  1
    RHS1      constraint2_3873  1
    RHS1      constraint2_510  1
    RHS1      constraint2_511  1
    RHS1      constraint2_512  1
    RHS1      constraint2_513  1
    RHS1      constraint2_790  1
    RHS1      constraint2_791  1
    RHS1      constraint2_792  1
    RHS1      constraint2_793  1
    RHS1      constraint2_00  1
    RHS1      constraint2_01  1
    RHS1      constraint2_02  1
    RHS1      constraint2_03  1
    RHS1      constraint2_220  1
    RHS1      constraint2_221  1
    RHS1      constraint2_222  1
    RHS1      constraint2_223  1
    RHS1      constraint2_4170  1
    RHS1      constraint2_4171  1
    RHS1      constraint2_4172  1
    RHS1      constraint2_4173  1
    RHS1      constraint2_2590  1
    RHS1      constraint2_2591  1
    RHS1      constraint2_2592  1
    RHS1      constraint2_2593  1
    RHS1      constraint2_5090  1
    RHS1      constraint2_5091  1
    RHS1      constraint2_5092  1
    RHS1      constraint2_5093  1
    RHS1      constraint2_4960  1
    RHS1      constraint2_4961  1
    RHS1      constraint2_4962  1
    RHS1      constraint2_4963  1
    RHS1      constraint2_7220  1
    RHS1      constraint2_7221  1
    RHS1      constraint2_7222  1
    RHS1      constraint2_7223  1
    RHS1      constraint2_6970  1
    RHS1      constraint2_6971  1
    RHS1      constraint2_6972  1
    RHS1      constraint2_6973  1
    RHS1      constraint2_2830  1
    RHS1      constraint2_2831  1
    RHS1      constraint2_2832  1
    RHS1      constraint2_2833  1
BOUNDS
 UP BND1      Z_320_0_0  1
 UP BND1      Z_320_0_1  1
 UP BND1      Z_320_0_2  1
 UP BND1      Z_320_0_3  1
 UP BND1      Z_320_0_4  1
 UP BND1      Z_320_1_0  1
 UP BND1      Z_320_1_1  1
 UP BND1      Z_320_1_2  1
 UP BND1      Z_320_1_3  1
 UP BND1      Z_320_1_4  1
 UP BND1      Z_57_0_0  1
 UP BND1      Z_57_0_1  1
 UP BND1      Z_57_0_2  1
 UP BND1      Z_57_0_3  1
 UP BND1      Z_57_0_4  1
 UP BND1      Z_687_0_0  1
 UP BND1      Z_687_0_1  1
 UP BND1      Z_687_0_2  1
 UP BND1      Z_687_0_3  1
 UP BND1      Z_687_0_4  1
 UP BND1      Z_387_0_0  1
 UP BND1      Z_387_0_1  1
 UP BND1      Z_387_0_2  1
 UP BND1      Z_387_0_3  1
 UP BND1      Z_387_0_4  1
 UP BND1      Z_79_1_0  1
 UP BND1      Z_79_1_1  1
 UP BND1      Z_79_1_2  1
 UP BND1      Z_79_1_3  1
 UP BND1      Z_79_1_4  1
 UP BND1      Z_79_0_0  1
 UP BND1      Z_79_0_1  1
 UP BND1      Z_79_0_2  1
 UP BND1      Z_79_0_3  1
 UP BND1      Z_79_0_4  1
 UP BND1      Z_79_2_0  1
 UP BND1      Z_79_2_1  1
 UP BND1      Z_79_2_2  1
 UP BND1      Z_79_2_3  1
 UP BND1      Z_79_2_4  1
 UP BND1      Z_79_9_0  1
 UP BND1      Z_79_9_1  1
 UP BND1      Z_79_9_2  1
 UP BND1      Z_79_9_3  1
 UP BND1      Z_79_9_4  1
 UP BND1      Z_0_1_0   1
 UP BND1      Z_0_1_1   1
 UP BND1      Z_0_1_2   1
 UP BND1      Z_0_1_3   1
 UP BND1      Z_0_1_4   1
 UP BND1      Z_0_0_0   1
 UP BND1      Z_0_0_1   1
 UP BND1      Z_0_0_2   1
 UP BND1      Z_0_0_3   1
 UP BND1      Z_0_0_4   1
 UP BND1      Z_0_6_0   1
 UP BND1      Z_0_6_1   1
 UP BND1      Z_0_6_2   1
 UP BND1      Z_0_6_3   1
 UP BND1      Z_0_6_4   1
 UP BND1      Z_22_0_0  1
 UP BND1      Z_22_0_1  1
 UP BND1      Z_22_0_2  1
 UP BND1      Z_22_0_3  1
 UP BND1      Z_22_0_4  1
 UP BND1      Z_259_0_0  1
 UP BND1      Z_259_0_1  1
 UP BND1      Z_259_0_2  1
 UP BND1      Z_259_0_3  1
 UP BND1      Z_259_0_4  1
 UP BND1      Z_509_0_0  1
 UP BND1      Z_509_0_1  1
 UP BND1      Z_509_0_2  1
 UP BND1      Z_509_0_3  1
 UP BND1      Z_509_0_4  1
 UP BND1      Z_722_2_0  1
 UP BND1      Z_722_2_1  1
 UP BND1      Z_722_2_2  1
 UP BND1      Z_722_2_3  1
 UP BND1      Z_722_2_4  1
 UP BND1      Z_722_4_0  1
 UP BND1      Z_722_4_1  1
 UP BND1      Z_722_4_2  1
 UP BND1      Z_722_4_3  1
 UP BND1      Z_722_4_4  1
 UP BND1      Z_722_0_0  1
 UP BND1      Z_722_0_1  1
 UP BND1      Z_722_0_2  1
 UP BND1      Z_722_0_3  1
 UP BND1      Z_722_0_4  1
 UP BND1      Z_722_3_0  1
 UP BND1      Z_722_3_1  1
 UP BND1      Z_722_3_2  1
 UP BND1      Z_722_3_3  1
 UP BND1      Z_722_3_4  1
 UP BND1      Z_722_1_0  1
 UP BND1      Z_722_1_1  1
 UP BND1      Z_722_1_2  1
 UP BND1      Z_722_1_3  1
 UP BND1      Z_722_1_4  1
 UP BND1      Z_722_5_0  1
 UP BND1      Z_722_5_1  1
 UP BND1      Z_722_5_2  1
 UP BND1      Z_722_5_3  1
 UP BND1      Z_722_5_4  1
 UP BND1      Z_697_0_0  1
 UP BND1      Z_697_0_1  1
 UP BND1      Z_697_0_2  1
 UP BND1      Z_697_0_3  1
 UP BND1      Z_697_0_4  1
 UP BND1      Z_283_0_0  1
 UP BND1      Z_283_0_1  1
 UP BND1      Z_283_0_2  1
 UP BND1      Z_283_0_3  1
 UP BND1      Z_283_0_4  1
ENDATA
